c description: Random 3-CNF over 21 variables and 89 clauses
c generator: CNFgen (0.9.2)
c copyright: (C) 2012-2022 Massimo Lauria <massimo.lauria@uniroma1.it>
c url: https://massimolauria.net/cnfgen
c command line: cnfgen --output CNF_4.28/21_bit_89_77.cnf randkcnf 3 21 89
c
p cnf 21 89
-4 -18 -20 0
-3 8 -10 0
-11 -12 -13 0
4 -9 18 0
-1 -4 -16 0
7 -8 -19 0
-9 11 -16 0
1 -12 16 0
7 -14 20 0
1 -8 -12 0
-3 -12 -19 0
-1 -16 -18 0
3 -5 -17 0
-15 -17 -20 0
4 -7 16 0
-7 10 18 0
7 10 15 0
-10 -15 20 0
-11 -12 14 0
13 -16 -17 0
2 11 21 0
8 11 -15 0
13 17 19 0
-1 6 -12 0
1 -4 8 0
-2 -4 13 0
3 8 12 0
-8 13 16 0
-4 5 -9 0
12 -14 -20 0
-8 11 13 0
4 5 -14 0
14 16 18 0
-7 12 19 0
11 12 20 0
8 -9 -10 0
-10 -14 -16 0
-1 3 11 0
9 -13 19 0
1 2 -17 0
12 15 18 0
-5 9 14 0
10 -15 -16 0
-3 -4 -13 0
8 11 20 0
-8 12 15 0
8 18 20 0
-16 19 -21 0
-3 -7 15 0
3 5 -16 0
4 -6 20 0
2 -7 -13 0
1 -9 20 0
4 5 -8 0
-6 -7 14 0
2 -3 -11 0
7 10 -11 0
4 9 -13 0
-1 7 20 0
-13 17 18 0
-4 9 -11 0
2 17 -19 0
8 -12 13 0
-1 -12 -14 0
-3 13 15 0
-2 -10 -13 0
7 -16 20 0
-12 -15 16 0
9 10 21 0
-1 5 11 0
4 -5 10 0
-2 14 16 0
1 -12 15 0
2 -6 19 0
2 -6 10 0
4 -5 19 0
2 20 -21 0
-1 9 -20 0
1 2 8 0
-5 -11 20 0
-9 -10 -14 0
7 15 -19 0
5 6 -12 0
-4 5 6 0
-6 -10 -13 0
3 17 21 0
-2 17 21 0
7 10 -14 0
4 5 -9 0
